branch-and-cut/resultados/B/b01.sol
# Objective value = 82
e[1,7] 0
e[7,1] 0
e[1,20] 0
e[20,1] 0
e[1,31] 0
e[31,1] 0
e[3,4] 0
e[4,3] 0
e[6,28] 1
e[28,6] 1
e[10,2] 0
e[2,10] 0
e[13,30] 0
e[30,13] 0
e[16,5] 0
e[5,16] 0
e[16,41] 0
e[41,16] 0
e[17,18] 0
e[18,17] 0
e[17,27] 1
e[27,17] 1
e[17,42] 1
e[42,17] 1
e[18,1] 0
e[1,18] 0
e[19,6] 1
e[6,19] 1
e[19,13] 0
e[13,19] 0
e[19,15] 0
e[15,19] 0
e[19,26] 1
e[26,19] 1
e[19,37] 0
e[37,19] 0
e[19,39] 0
e[39,19] 0
e[19,47] 1
e[47,19] 1
e[20,11] 1
e[11,20] 1
e[20,16] 0
e[16,20] 0
e[20,17] 0
e[17,20] 0
e[21,9] 0
e[9,21] 0
e[21,19] 1
e[19,21] 1
e[21,20] 1
e[20,21] 1
e[21,39] 0
e[39,21] 0
e[21,42] 1
e[42,21] 1
e[24,33] 0
e[33,24] 0
e[26,33] 1
e[33,26] 1
e[27,4] 0
e[4,27] 0
e[27,23] 1
e[23,27] 1
e[28,8] 0
e[8,28] 0
e[28,32] 1
e[32,28] 1
e[29,4] 0
e[4,29] 0
e[29,14] 0
e[14,29] 0
e[29,15] 0
e[15,29] 0
e[32,34] 1
e[34,32] 1
e[33,19] 0
e[19,33] 0
e[33,29] 0
e[29,33] 0
e[35,1] 0
e[1,35] 0
e[35,3] 0
e[3,35] 0
e[35,10] 0
e[10,35] 0
e[35,38] 0
e[38,35] 0
e[35,48] 1
e[48,35] 1
e[35,49] 0
e[49,35] 0
e[39,14] 0
e[14,39] 0
e[39,22] 0
e[22,39] 0
e[40,0] 0
e[0,40] 0
e[40,21] 1
e[21,40] 1
e[40,24] 0
e[24,40] 0
e[40,35] 1
e[35,40] 1
e[40,43] 0
e[43,40] 0
e[40,46] 1
e[46,40] 1
e[41,5] 0
e[5,41] 0
e[41,45] 0
e[45,41] 0
e[43,23] 0
e[23,43] 0
e[43,38] 0
e[38,43] 0
e[44,25] 0
e[25,44] 0
e[44,27] 0
e[27,44] 0
e[46,36] 1
e[36,46] 1
e[46,44] 0
e[44,46] 0
e[49,12] 0
e[12,49] 0
